Features/ForMiniZinc/benchmark_puzzles/benchmarks4x4/70/puzzle12.dzn
S = 4;
start = [|13,0,0,0,0,0,0,14,15,0,0,0,0,0,0,0|
0,0,0,0,0,0,6,0,0,7,3,14,13,0,0,0|
0,0,0,0,0,0,0,0,0,10,12,0,5,15,3,0|
0,0,0,0,0,0,9,0,8,0,0,4,0,0,0,11|
0,0,0,13,0,3,0,4,2,0,0,11,0,8,9,7|
0,0,0,0,0,1,0,0,0,0,8,10,0,0,11,0|
16,0,0,0,0,0,0,8,9,0,14,0,0,0,4,0|
1,11,0,8,0,0,0,9,0,0,0,0,0,0,5,0|
8,12,0,9,0,6,5,0,0,0,0,0,0,0,0,3|
4,0,15,0,14,0,0,0,0,9,0,0,0,0,0,0|
0,16,0,11,0,0,0,0,4,12,7,0,14,0,2,15|
0,10,0,0,4,0,0,0,0,0,0,0,0,9,0,16|
0,0,0,0,9,0,11,0,3,5,0,13,0,0,0,10|
0,0,0,0,1,0,0,0,0,11,0,0,0,13,14,0|
0,0,0,0,0,0,0,0,14,0,0,6,12,5,0,0|
9,14,0,0,0,5,4,0,1,0,0,0,0,0,0,0|];